
Gurobi 13.0.0 (linux64) logging started Thu Jan 15 06:45:00 2026

Set parameter LogFile to value "../experiments/network-n_50_s_0_rp_0-app_set-id_50_21_apps/submip_40_epr1_model_gurobi.log"
Set parameter TimeLimit to value 8.5752731778498855e+02
Gurobi Optimizer version 13.0.0 build v13.0.0rc1 (linux64 - "Ubuntu 24.04.3 LTS")

CPU model: Intel(R) Core(TM) Ultra 7 165H, instruction set [SSE2|AVX|AVX2]
Thread count: 22 physical cores, 22 logical processors, using up to 22 threads

Non-default parameters:
TimeLimit  8.5752731778498855e+02
LogToConsole  0

Academic license 2539022 - for non-commercial use only - registered to al___@studenti.unimi.it
Optimize a model with 24973 rows, 6800 columns and 59090 nonzeros (Min)
Model fingerprint: 0x2f4cc283
Model has 6800 linear objective coefficients
Model has 166 quadratic constraints
Variable types: 0 continuous, 6800 integer (6800 binary)
Coefficient statistics:
  Matrix range     [1e+00, 8e+02]
  QMatrix range    [5e+01, 2e+02]
  Objective range  [1e+01, 2e+02]
  Bounds range     [1e+00, 1e+00]
  RHS range        [1e+00, 1e+09]
  QRHS range       [1e+02, 6e+02]
Presolve removed 24549 rows and 5735 columns
Presolve time: 0.07s
Presolved: 7142 rows, 7635 columns, 43138 nonzeros
Variable types: 0 continuous, 7635 integer (7635 binary)

Root relaxation: objective 5.415486e+03, 2719 iterations, 0.13 seconds (0.23 work units)

    Nodes    |    Current Node    |     Objective Bounds      |     Work
 Expl Unexpl |  Obj  Depth IntInf | Incumbent    BestBd   Gap | It/Node Time

     0     0 5415.48620    0  150          - 5415.48620      -     -    0s
     0     0 5626.46522    0  184          - 5626.46522      -     -    0s
     0     0 5629.53760    0  177          - 5629.53760      -     -    0s
     0     0 5687.25356    0  163          - 5687.25356      -     -    0s
     0     0 5697.01211    0  168          - 5697.01211      -     -    0s
     0     0 5697.01211    0  169          - 5697.01211      -     -    0s
     0     0 5889.02090    0  217          - 5889.02090      -     -    1s
     0     0 6068.38086    0  216          - 6068.38086      -     -    1s
     0     0 6101.12976    0  213          - 6101.12976      -     -    1s
     0     0 6103.16683    0  227          - 6103.16683      -     -    1s
     0     0 infeasible    0               - infeasible      -     -    1s

Cutting planes:
  Gomory: 2
  Lift-and-project: 2
  Cover: 103
  Implied bound: 2
  Clique: 42
  MIR: 85
  Knapsack: 22
  StrongCG: 55
  GUB cover: 4
  Zero half: 40
  RLT: 149
  Relax-and-lift: 19
  BQP: 34

Explored 1 nodes (7527 simplex iterations) in 1.79 seconds (2.00 work units)
Thread count was 22 (of 22 available processors)

Solution count 0

Model is infeasible
Best objective -, best bound -, gap -

User-callback calls 864, time in user-callback 0.00 sec
